p edge 200 1990
p 1 3
p 1 13
p 1 37
p 1 81
p 1 88
p 1 96
p 1 102
p 1 103
p 1 111
p 1 112
p 1 115
p 1 117
p 1 122
p 1 126
p 1 132
p 1 150
p 1 152
p 1 157
p 1 166
p 1 180
p 2 13
p 2 25
p 2 29
p 2 37
p 2 46
p 2 57
p 2 83
p 2 84
p 2 97
p 2 115
p 2 123
p 2 132
p 2 139
p 2 166
p 2 174
p 2 180
p 2 199
p 3 9
p 3 15
p 3 16
p 3 17
p 3 38
p 3 48
p 3 61
p 3 81
p 3 115
p 3 117
p 3 138
p 3 167
p 3 174
p 3 180
p 3 184
p 3 193
p 3 195
p 4 22
p 4 27
p 4 39
p 4 40
p 4 53
p 4 55
p 4 62
p 4 80
p 4 85
p 4 92
p 4 99
p 4 123
p 4 125
p 4 134
p 4 136
p 4 161
p 4 165
p 4 172
p 4 176
p 4 182
p 4 189
p 4 191
p 4 198
p 5 9
p 5 29
p 5 36
p 5 37
p 5 44
p 5 84
p 5 87
p 5 103
p 5 116
p 5 150
p 5 180
p 5 184
p 5 197
p 6 11
p 6 15
p 6 16
p 6 44
p 6 48
p 6 52
p 6 53
p 6 61
p 6 81
p 6 102
p 6 108
p 6 138
p 6 140
p 6 147
p 6 150
p 6 157
p 6 167
p 6 187
p 6 193
p 6 197
p 7 17
p 7 29
p 7 42
p 7 44
p 7 49
p 7 52
p 7 73
p 7 75
p 7 79
p 7 101
p 7 115
p 7 118
p 7 126
p 7 127
p 7 150
p 8 36
p 8 37
p 8 42
p 8 73
p 8 79
p 8 96
p 8 112
p 8 115
p 8 118
p 8 124
p 8 126
p 8 132
p 8 133
p 8 150
p 8 154
p 8 180
p 8 184
p 8 197
p 8 199
p 9 30
p 9 31
p 9 32
p 9 77
p 9 79
p 9 119
p 9 128
p 9 140
p 9 148
p 9 155
p 9 159
p 9 160
p 9 163
p 9 164
p 9 170
p 9 171
p 9 172
p 9 189
p 9 190
p 10 11
p 10 15
p 10 16
p 10 33
p 10 37
p 10 42
p 10 43
p 10 69
p 10 96
p 10 101
p 10 110
p 10 112
p 10 114
p 10 115
p 10 125
p 10 153
p 10 154
p 10 162
p 10 167
p 10 184
p 10 187
p 10 195
p 10 200
p 11 14
p 11 17
p 11 18
p 11 30
p 11 31
p 11 41
p 11 63
p 11 82
p 11 85
p 11 86
p 11 95
p 11 97
p 11 100
p 11 106
p 11 113
p 11 117
p 11 133
p 11 134
p 11 148
p 11 175
p 11 181
p 12 23
p 12 25
p 12 26
p 12 31
p 12 58
p 12 68
p 12 87
p 12 94
p 12 106
p 12 109
p 12 117
p 12 127
p 12 134
p 12 143
p 12 144
p 12 150
p 12 163
p 12 170
p 12 176
p 12 188
p 12 193
p 13 20
p 13 26
p 13 32
p 13 45
p 13 47
p 13 54
p 13 62
p 13 64
p 13 89
p 13 91
p 13 92
p 13 100
p 13 104
p 13 112
p 13 121
p 13 131
p 13 140
p 13 151
p 13 173
p 13 183
p 13 195
p 13 198
p 14 16
p 14 29
p 14 33
p 14 52
p 14 61
p 14 71
p 14 85
p 14 125
p 14 162
p 14 167
p 14 169
p 14 183
p 15 18
p 15 19
p 15 41
p 15 51
p 15 58
p 15 59
p 15 67
p 15 86
p 15 90
p 15 91
p 15 101
p 15 124
p 15 127
p 15 128
p 15 133
p 15 134
p 15 135
p 15 141
p 15 152
p 15 177
p 15 178
p 15 191
p 15 196
p 16 19
p 16 41
p 16 50
p 16 63
p 16 64
p 16 76
p 16 83
p 16 87
p 16 89
p 16 90
p 16 91
p 16 95
p 16 106
p 16 117
p 16 130
p 16 131
p 16 133
p 16 137
p 16 141
p 16 156
p 16 157
p 16 181
p 16 191
p 16 197
p 17 19
p 17 22
p 17 30
p 17 34
p 17 40
p 17 45
p 17 53
p 17 60
p 17 78
p 17 80
p 17 87
p 17 97
p 17 106
p 17 113
p 17 114
p 17 151
p 17 159
p 17 160
p 17 171
p 18 21
p 18 24
p 18 41
p 18 94
p 18 102
p 18 125
p 18 146
p 18 157
p 18 158
p 18 186
p 18 193
p 19 21
p 19 67
p 19 92
p 19 111
p 19 115
p 19 123
p 19 150
p 19 153
p 19 180
p 19 184
p 20 48
p 20 56
p 20 61
p 20 79
p 20 105
p 20 122
p 20 146
p 20 147
p 20 158
p 20 187
p 20 199
p 20 200
p 21 25
p 21 34
p 21 35
p 21 47
p 21 49
p 21 59
p 21 74
p 21 75
p 21 83
p 21 86
p 21 87
p 21 89
p 21 90
p 21 91
p 21 98
p 21 99
p 21 114
p 21 115
p 21 116
p 21 127
p 21 128
p 21 129
p 21 130
p 21 133
p 21 134
p 21 137
p 21 140
p 21 144
p 21 161
p 21 177
p 21 182
p 21 190
p 21 192
p 22 36
p 22 46
p 22 49
p 22 52
p 22 79
p 22 97
p 22 99
p 22 103
p 22 105
p 22 115
p 22 132
p 22 139
p 22 144
p 22 149
p 22 169
p 22 199
p 23 29
p 23 37
p 23 46
p 23 52
p 23 79
p 23 81
p 23 84
p 23 95
p 23 118
p 23 126
p 23 132
p 23 138
p 23 139
p 23 150
p 23 166
p 23 174
p 23 181
p 23 199
p 24 30
p 24 47
p 24 55
p 24 64
p 24 67
p 24 72
p 24 78
p 24 84
p 24 89
p 24 99
p 24 106
p 24 107
p 24 116
p 24 117
p 24 131
p 24 133
p 24 144
p 24 145
p 24 148
p 24 154
p 24 161
p 24 178
p 24 185
p 24 191
p 25 29
p 25 48
p 25 61
p 25 79
p 25 83
p 25 101
p 25 105
p 25 111
p 25 125
p 25 126
p 25 132
p 25 162
p 25 164
p 25 174
p 25 179
p 26 29
p 26 36
p 26 37
p 26 42
p 26 49
p 26 64
p 26 70
p 26 79
p 26 84
p 26 97
p 26 101
p 26 105
p 26 118
p 26 126
p 26 150
p 26 153
p 26 157
p 26 169
p 26 184
p 26 194
p 27 44
p 27 46
p 27 50
p 27 57
p 27 58
p 27 88
p 27 115
p 27 122
p 27 139
p 27 149
p 27 154
p 27 174
p 28 37
p 28 60
p 28 79
p 28 147
p 28 174
p 28 187
p 28 193
p 28 195
p 29 30
p 29 32
p 29 35
p 29 39
p 29 40
p 29 55
p 29 58
p 29 60
p 29 62
p 29 68
p 29 92
p 29 93
p 29 99
p 29 113
p 29 143
p 29 148
p 29 151
p 29 155
p 29 160
p 29 161
p 29 175
p 29 176
p 29 184
p 29 186
p 29 191
p 30 43
p 30 46
p 30 48
p 30 57
p 30 79
p 30 103
p 30 105
p 30 108
p 30 110
p 30 115
p 30 125
p 30 146
p 30 164
p 30 166
p 30 167
p 30 176
p 30 180
p 31 46
p 31 57
p 31 59
p 31 61
p 31 81
p 31 101
p 31 108
p 31 110
p 31 153
p 31 167
p 31 172
p 31 179
p 31 194
p 32 46
p 32 88
p 32 102
p 32 112
p 32 118
p 32 131
p 32 138
p 32 139
p 32 150
p 32 152
p 32 166
p 32 169
p 32 177
p 32 184
p 32 194
p 33 34
p 33 45
p 33 47
p 33 55
p 33 58
p 33 59
p 33 63
p 33 67
p 33 75
p 33 85
p 33 87
p 33 90
p 33 91
p 33 98
p 33 100
p 33 118
p 33 133
p 33 144
p 33 156
p 33 161
p 33 169
p 33 196
p 34 73
p 34 91
p 34 96
p 34 108
p 34 115
p 34 146
p 34 149
p 34 157
p 34 158
p 34 184
p 34 195
p 34 198
p 35 61
p 35 63
p 35 77
p 35 79
p 35 96
p 35 112
p 35 115
p 35 132
p 35 138
p 35 147
p 35 162
p 35 164
p 35 167
p 35 193
p 36 53
p 36 56
p 36 59
p 36 60
p 36 67
p 36 85
p 36 91
p 36 92
p 36 93
p 36 98
p 36 104
p 36 124
p 36 131
p 36 147
p 36 149
p 36 155
p 36 159
p 36 160
p 36 163
p 36 165
p 36 170
p 36 171
p 36 172
p 36 175
p 37 43
p 37 58
p 37 60
p 37 63
p 37 69
p 37 90
p 37 94
p 37 95
p 37 114
p 37 120
p 37 137
p 37 142
p 37 143
p 37 148
p 37 165
p 37 179
p 37 185
p 37 189
p 38 50
p 38 59
p 38 66
p 38 72
p 38 85
p 38 89
p 38 106
p 38 107
p 38 122
p 38 130
p 38 131
p 38 133
p 38 140
p 38 141
p 38 143
p 38 144
p 38 178
p 38 185
p 38 199
p 39 44
p 39 45
p 39 46
p 39 49
p 39 57
p 39 84
p 39 97
p 39 101
p 39 102
p 39 103
p 39 118
p 39 123
p 39 126
p 39 153
p 39 175
p 39 184
p 40 44
p 40 57
p 40 73
p 40 97
p 40 102
p 40 115
p 40 122
p 40 126
p 40 138
p 40 149
p 40 191
p 41 49
p 41 94
p 41 110
p 41 112
p 41 146
p 41 169
p 41 187
p 41 199
p 42 46
p 42 54
p 42 58
p 42 60
p 42 62
p 42 66
p 42 72
p 42 85
p 42 93
p 42 109
p 42 124
p 42 129
p 42 135
p 42 137
p 42 140
p 42 151
p 42 155
p 42 160
p 42 163
p 42 165
p 42 167
p 42 171
p 42 177
p 42 181
p 43 55
p 43 58
p 43 59
p 43 63
p 43 74
p 43 76
p 43 90
p 43 99
p 43 100
p 43 106
p 43 117
p 43 133
p 43 135
p 43 140
p 43 145
p 43 148
p 43 156
p 43 175
p 43 179
p 43 188
p 43 190
p 44 67
p 44 105
p 44 108
p 44 113
p 44 121
p 44 137
p 44 163
p 44 165
p 44 170
p 44 175
p 44 185
p 45 103
p 45 108
p 45 110
p 45 112
p 45 125
p 45 126
p 45 150
p 45 174
p 45 175
p 45 180
p 45 187
p 45 197
p 46 47
p 46 50
p 46 53
p 46 62
p 46 64
p 46 68
p 46 76
p 46 80
p 46 90
p 46 92
p 46 93
p 46 104
p 46 109
p 46 117
p 46 120
p 46 131
p 46 133
p 46 135
p 46 142
p 46 145
p 46 148
p 46 151
p 46 159
p 46 167
p 46 168
p 46 170
p 46 172
p 46 182
p 46 185
p 46 189
p 46 198
p 47 52
p 47 62
p 47 88
p 47 108
p 47 146
p 47 156
p 47 187
p 47 200
p 48 50
p 48 55
p 48 67
p 48 70
p 48 75
p 48 76
p 48 82
p 48 87
p 48 114
p 48 116
p 48 124
p 48 129
p 48 143
p 48 174
p 48 180
p 48 181
p 48 192
p 48 196
p 49 58
p 49 59
p 49 68
p 49 69
p 49 76
p 49 78
p 49 94
p 49 95
p 49 109
p 49 113
p 49 115
p 49 117
p 49 128
p 49 133
p 49 135
p 49 142
p 49 151
p 49 160
p 49 171
p 49 173
p 49 181
p 49 196
p 50 58
p 50 79
p 50 88
p 50 110
p 50 149
p 50 150
p 50 162
p 51 110
p 51 111
p 51 118
p 51 125
p 51 126
p 51 150
p 51 152
p 51 158
p 51 159
p 51 164
p 51 199
p 51 200
p 52 53
p 52 54
p 52 56
p 52 58
p 52 64
p 52 86
p 52 91
p 52 99
p 52 120
p 52 128
p 52 141
p 52 155
p 52 183
p 52 185
p 52 189
p 52 192
p 52 194
p 52 200
p 53 97
p 53 101
p 53 112
p 53 115
p 53 123
p 53 132
p 53 138
p 53 140
p 53 152
p 53 153
p 53 166
p 53 180
p 53 184
p 54 57
p 54 79
p 54 84
p 54 86
p 54 102
p 54 112
p 54 132
p 54 138
p 54 139
p 54 150
p 54 152
p 54 184
p 54 199
p 55 61
p 55 73
p 55 102
p 55 104
p 55 110
p 55 118
p 55 125
p 55 128
p 55 132
p 55 147
p 55 149
p 55 153
p 55 157
p 55 162
p 55 195
p 56 88
p 56 102
p 56 111
p 56 112
p 56 118
p 56 132
p 56 180
p 56 194
p 57 80
p 57 81
p 57 85
p 57 114
p 57 119
p 57 124
p 57 134
p 57 136
p 57 140
p 57 146
p 57 160
p 57 165
p 57 170
p 57 181
p 57 183
p 57 188
p 57 189
p 57 192
p 58 103
p 58 105
p 58 110
p 58 115
p 58 125
p 58 132
p 58 146
p 58 158
p 58 169
p 58 184
p 58 186
p 58 193
p 59 61
p 59 71
p 59 84
p 59 97
p 59 108
p 59 110
p 59 125
p 59 132
p 59 146
p 59 147
p 59 153
p 59 158
p 59 164
p 59 172
p 59 174
p 59 186
p 60 81
p 60 84
p 60 88
p 60 97
p 60 101
p 60 103
p 60 111
p 60 126
p 60 154
p 60 166
p 60 179
p 60 199
p 61 64
p 61 65
p 61 70
p 61 72
p 61 73
p 61 74
p 61 82
p 61 85
p 61 89
p 61 100
p 61 116
p 61 117
p 61 127
p 61 135
p 61 144
p 61 153
p 61 177
p 62 84
p 62 139
p 62 150
p 62 153
p 62 156
p 62 169
p 63 73
p 63 77
p 63 79
p 63 102
p 63 139
p 63 146
p 63 158
p 63 179
p 63 180
p 63 184
p 63 187
p 63 193
p 64 70
p 64 101
p 64 112
p 64 138
p 64 146
p 64 157
p 64 164
p 64 167
p 64 169
p 64 180
p 65 71
p 65 108
p 65 109
p 65 132
p 65 146
p 65 147
p 65 154
p 65 180
p 65 194
p 65 200
p 66 84
p 66 88
p 66 119
p 66 123
p 66 139
p 66 153
p 66 162
p 66 169
p 66 185
p 66 187
p 66 195
p 66 199
p 67 92
p 67 97
p 67 102
p 67 105
p 67 146
p 67 147
p 67 150
p 67 167
p 67 179
p 67 194
p 68 73
p 68 78
p 68 79
p 68 102
p 68 103
p 68 122
p 68 132
p 68 137
p 68 150
p 68 157
p 68 169
p 68 184
p 68 199
p 69 79
p 69 84
p 69 97
p 69 101
p 69 103
p 69 105
p 69 111
p 69 114
p 69 132
p 69 149
p 69 153
p 69 157
p 69 169
p 69 179
p 69 194
p 69 199
p 70 71
p 70 88
p 70 108
p 70 110
p 70 147
p 70 162
p 70 167
p 70 179
p 70 184
p 70 187
p 70 193
p 71 83
p 71 85
p 71 87
p 71 89
p 71 91
p 71 100
p 71 106
p 71 111
p 71 124
p 71 133
p 71 135
p 71 141
p 71 143
p 71 166
p 71 168
p 71 181
p 71 185
p 72 112
p 72 123
p 72 125
p 72 130
p 72 146
p 72 147
p 72 151
p 72 152
p 72 157
p 72 166
p 72 167
p 72 194
p 72 195
p 72 199
p 73 80
p 73 104
p 73 106
p 73 119
p 73 121
p 73 136
p 73 137
p 73 153
p 73 163
p 73 176
p 73 182
p 73 185
p 73 190
p 74 84
p 74 98
p 74 132
p 74 147
p 74 155
p 74 158
p 74 167
p 74 195
p 75 111
p 75 125
p 75 127
p 75 166
p 75 186
p 75 193
p 75 194
p 76 96
p 76 108
p 76 125
p 76 152
p 76 158
p 76 168
p 76 169
p 76 171
p 76 193
p 77 79
p 77 102
p 77 123
p 77 132
p 77 139
p 77 153
p 77 180
p 77 197
p 78 110
p 78 137
p 78 139
p 78 146
p 78 147
p 78 166
p 78 174
p 78 193
p 78 197
p 79 80
p 79 82
p 79 92
p 79 99
p 79 104
p 79 106
p 79 114
p 79 120
p 79 130
p 79 135
p 79 142
p 79 148
p 79 156
p 79 160
p 79 164
p 79 177
p 79 189
p 79 198
p 80 81
p 80 84
p 80 101
p 80 103
p 80 112
p 80 132
p 80 138
p 80 139
p 80 152
p 80 154
p 80 166
p 80 174
p 80 179
p 80 188
p 80 197
p 81 92
p 81 94
p 81 109
p 81 124
p 81 136
p 81 137
p 81 142
p 81 145
p 81 146
p 81 151
p 81 155
p 81 159
p 81 160
p 81 161
p 81 165
p 81 170
p 81 183
p 82 106
p 82 153
p 82 158
p 82 167
p 82 186
p 82 189
p 83 138
p 83 153
p 83 154
p 83 157
p 83 200
p 84 98
p 84 100
p 84 109
p 84 127
p 84 129
p 84 136
p 84 143
p 84 151
p 84 154
p 84 170
p 84 171
p 84 176
p 84 181
p 84 191
p 85 103
p 85 115
p 85 132
p 85 139
p 85 154
p 85 164
p 85 167
p 85 180
p 85 183
p 85 186
p 85 187
p 85 195
p 86 102
p 86 105
p 86 110
p 86 154
p 86 164
p 86 197
p 87 101
p 87 116
p 87 146
p 87 164
p 87 187
p 88 93
p 88 95
p 88 96
p 88 104
p 88 110
p 88 114
p 88 119
p 88 127
p 88 128
p 88 140
p 88 142
p 88 143
p 88 151
p 88 155
p 88 159
p 88 171
p 89 93
p 89 143
p 89 146
p 89 147
p 89 154
p 89 158
p 89 166
p 89 167
p 89 169
p 89 179
p 89 184
p 89 193
p 89 195
p 90 102
p 90 105
p 90 146
p 90 160
p 90 161
p 90 180
p 91 96
p 91 108
p 91 110
p 91 115
p 91 125
p 91 146
p 91 152
p 91 154
p 91 186
p 91 187
p 91 193
p 91 197
p 91 198
p 92 101
p 92 111
p 92 112
p 92 149
p 92 150
p 92 179
p 93 97
p 93 111
p 93 112
p 93 115
p 93 132
p 93 143
p 93 149
p 93 150
p 93 153
p 93 154
p 93 184
p 93 194
p 94 111
p 94 115
p 94 126
p 94 132
p 94 139
p 94 149
p 94 150
p 94 154
p 94 166
p 94 180
p 94 197
p 94 199
p 95 108
p 95 138
p 95 147
p 95 152
p 95 153
p 95 157
p 95 181
p 95 193
p 96 110
p 96 120
p 96 124
p 96 129
p 96 163
p 96 165
p 96 171
p 96 172
p 96 189
p 96 191
p 97 107
p 97 109
p 97 130
p 97 136
p 97 141
p 97 145
p 97 160
p 97 171
p 97 172
p 97 177
p 97 191
p 97 192
p 97 198
p 98 103
p 98 118
p 98 123
p 98 132
p 98 146
p 98 150
p 98 155
p 98 187
p 99 101
p 99 132
p 99 144
p 99 146
p 99 158
p 99 164
p 99 184
p 100 139
p 100 163
p 100 164
p 100 193
p 100 196
p 101 109
p 101 120
p 101 141
p 101 152
p 101 160
p 101 165
p 101 173
p 101 176
p 101 178
p 101 183
p 101 188
p 101 189
p 101 191
p 102 103
p 102 109
p 102 113
p 102 129
p 102 133
p 102 142
p 102 144
p 102 151
p 102 158
p 102 159
p 102 171
p 102 172
p 102 173
p 102 191
p 102 192
p 102 196
p 103 117
p 103 120
p 103 136
p 103 142
p 103 158
p 103 163
p 103 165
p 103 170
p 103 173
p 103 185
p 103 198
p 104 118
p 104 123
p 104 126
p 104 128
p 104 139
p 104 157
p 104 169
p 104 174
p 104 194
p 104 197
p 105 108
p 105 109
p 105 113
p 105 136
p 105 143
p 105 163
p 105 165
p 105 170
p 105 176
p 105 183
p 105 190
p 105 191
p 105 198
p 106 122
p 106 139
p 106 167
p 106 180
p 106 186
p 106 187
p 106 189
p 106 193
p 107 113
p 107 115
p 107 118
p 107 126
p 107 142
p 107 154
p 108 117
p 108 124
p 108 128
p 108 129
p 108 134
p 108 137
p 108 140
p 108 141
p 108 161
p 108 178
p 108 191
p 108 192
p 108 196
p 109 115
p 109 122
p 109 123
p 109 139
p 109 157
p 109 179
p 109 197
p 109 199
p 110 117
p 110 127
p 110 128
p 110 129
p 110 130
p 110 131
p 110 145
p 110 181
p 110 190
p 111 119
p 111 130
p 111 136
p 111 144
p 111 151
p 111 155
p 111 160
p 111 166
p 111 170
p 111 188
p 111 198
p 112 114
p 112 119
p 112 120
p 112 128
p 112 130
p 112 142
p 112 160
p 112 161
p 112 163
p 112 165
p 112 175
p 112 195
p 113 139
p 113 142
p 113 146
p 113 157
p 113 167
p 113 187
p 114 164
p 114 180
p 114 193
p 115 120
p 115 121
p 115 137
p 115 148
p 115 156
p 115 165
p 115 168
p 115 172
p 115 173
p 115 178
p 116 152
p 116 166
p 116 167
p 116 174
p 116 193
p 117 125
p 117 149
p 117 153
p 117 158
p 117 179
p 117 194
p 117 195
p 117 197
p 117 200
p 118 119
p 118 120
p 118 121
p 118 124
p 118 130
p 118 142
p 118 144
p 118 155
p 118 156
p 118 160
p 118 161
p 118 163
p 118 169
p 118 171
p 118 172
p 118 196
p 119 122
p 119 132
p 119 138
p 119 152
p 119 153
p 119 166
p 119 169
p 119 179
p 119 184
p 119 185
p 119 199
p 120 123
p 120 132
p 120 139
p 120 148
p 120 149
p 120 154
p 120 157
p 120 182
p 120 194
p 121 132
p 121 134
p 121 145
p 121 152
p 121 166
p 121 194
p 122 127
p 122 129
p 122 133
p 122 159
p 122 163
p 122 168
p 122 173
p 122 178
p 122 181
p 122 183
p 122 189
p 122 192
p 122 198
p 122 199
p 123 125
p 123 136
p 123 140
p 123 143
p 123 144
p 123 159
p 123 161
p 123 171
p 123 176
p 123 183
p 123 190
p 123 191
p 123 198
p 124 125
p 124 133
p 124 146
p 124 167
p 124 187
p 125 129
p 125 133
p 125 135
p 125 137
p 125 140
p 125 145
p 125 148
p 125 190
p 125 192
p 125 196
p 126 131
p 126 137
p 126 138
p 126 142
p 126 156
p 126 162
p 126 163
p 126 173
p 126 176
p 126 188
p 126 189
p 127 162
p 127 167
p 128 146
p 128 147
p 128 152
p 128 157
p 128 162
p 128 167
p 128 194
p 128 195
p 128 197
p 129 136
p 129 146
p 129 158
p 129 162
p 129 180
p 129 186
p 129 190
p 129 194
p 130 138
p 130 151
p 130 157
p 130 169
p 130 179
p 130 186
p 130 193
p 130 195
p 131 146
p 131 154
p 131 158
p 131 177
p 131 180
p 131 187
p 131 200
p 132 136
p 132 139
p 132 160
p 132 163
p 132 173
p 132 178
p 132 187
p 132 188
p 133 147
p 133 157
p 133 174
p 133 187
p 133 199
p 134 138
p 134 139
p 134 145
p 134 149
p 134 184
p 134 186
p 134 187
p 134 193
p 134 195
p 134 199
p 135 139
p 135 149
p 135 152
p 135 164
p 135 165
p 135 166
p 135 167
p 135 169
p 136 139
p 136 174
p 136 190
p 136 197
p 137 138
p 137 139
p 137 158
p 137 167
p 137 194
p 137 195
p 137 200
p 138 144
p 138 155
p 138 162
p 138 171
p 138 173
p 138 192
p 139 144
p 139 155
p 139 161
p 139 170
p 139 176
p 139 183
p 139 187
p 139 196
p 140 147
p 140 150
p 140 164
p 140 166
p 140 186
p 140 193
p 141 146
p 141 162
p 141 173
p 141 174
p 141 179
p 141 184
p 141 186
p 141 200
p 142 153
p 142 174
p 142 180
p 142 199
p 143 167
p 143 180
p 143 186
p 144 147
p 144 149
p 144 150
p 144 157
p 144 167
p 144 174
p 144 186
p 144 193
p 145 147
p 145 162
p 145 167
p 145 179
p 145 186
p 145 200
p 146 148
p 146 156
p 146 161
p 146 168
p 146 188
p 146 191
p 146 196
p 147 149
p 147 185
p 147 188
p 147 192
p 147 196
p 148 182
p 148 186
p 148 193
p 148 200
p 149 151
p 149 163
p 149 165
p 149 171
p 150 151
p 150 160
p 150 161
p 150 163
p 150 189
p 150 193
p 151 157
p 151 179
p 151 180
p 151 194
p 151 197
p 152 159
p 152 170
p 152 171
p 152 173
p 152 181
p 152 189
p 152 192
p 153 156
p 153 160
p 153 163
p 153 171
p 153 172
p 153 176
p 153 177
p 153 198
p 154 176
p 154 178
p 154 185
p 154 190
p 154 198
p 155 157
p 155 166
p 155 169
p 155 179
p 155 197
p 156 162
p 156 164
p 156 179
p 156 186
p 157 163
p 157 165
p 157 170
p 157 173
p 157 175
p 157 177
p 157 182
p 157 183
p 157 190
p 157 196
p 157 197
p 158 178
p 158 182
p 158 196
p 159 169
p 159 184
p 159 194
p 160 161
p 160 199
p 161 162
p 161 169
p 161 184
p 161 197
p 161 200
p 163 169
p 163 196
p 163 197
p 163 199
p 164 181
p 164 182
p 164 191
p 165 166
p 166 178
p 166 182
p 166 192
p 166 198
p 167 168
p 167 178
p 167 181
p 167 188
p 167 190
p 167 191
p 168 171
p 168 184
p 168 193
p 169 173
p 169 178
p 169 181
p 169 182
p 169 189
p 169 192
p 169 198
p 170 178
p 170 184
p 170 192
p 170 199
p 171 194
p 171 199
p 172 174
p 172 179
p 172 180
p 172 199
p 173 180
p 174 176
p 174 180
p 174 198
p 175 187
p 175 193
p 175 197
p 176 179
p 176 180
p 176 197
p 176 199
p 177 186
p 177 197
p 178 180
p 178 186
p 178 192
p 178 200
p 179 181
p 180 183
p 180 188
p 180 189
p 180 191
p 180 192
p 180 198
p 181 186
p 182 187
p 182 193
p 183 197
p 184 186
p 185 186
p 185 199
p 185 200
p 187 190
p 188 193
p 188 195
p 188 200
p 189 197
p 189 199
p 192 195
p 192 199
p 193 196
p 194 200
p 196 199
p 197 198
